<?xml version = "1.0" standalone="yes"?>
<!-- This file has been generated by DOcplex version 2.23.222  -->
<CPLEXSolution version="1.0">
 <header
   problemName="CVRP"
   objectiveValue="12101.7"
  />
 <variables>
  <variable name="x_0_2" index="1" value="1.00000"/>
  <variable name="x_0_3" index="2" value="1.00000"/>
  <variable name="x_0_7" index="6" value="1.00000"/>
  <variable name="x_0_9" index="8" value="1.00000"/>
  <variable name="x_0_10" index="9" value="1.00000"/>
  <variable name="x_0_11" index="10" value="1.00000"/>
  <variable name="x_0_12" index="11" value="1.00000"/>
  <variable name="x_0_14" index="13" value="1.00000"/>
  <variable name="x_0_15" index="14" value="1.00000"/>
  <variable name="x_1_0" index="15" value="1.00000"/>
  <variable name="x_2_0" index="30" value="1.00000"/>
  <variable name="x_3_0" index="45" value="1.00000"/>
  <variable name="x_4_0" index="60" value="1.00000"/>
  <variable name="x_5_4" index="79" value="1.00000"/>
  <variable name="x_6_8" index="97" value="1.00000"/>
  <variable name="x_7_6" index="111" value="1.00000"/>
  <variable name="x_8_13" index="132" value="1.00000"/>
  <variable name="x_9_0" index="135" value="1.00000"/>
  <variable name="x_10_0" index="150" value="1.00000"/>
  <variable name="x_11_1" index="166" value="1.00000"/>
  <variable name="x_12_0" index="180" value="1.00000"/>
  <variable name="x_13_0" index="195" value="1.00000"/>
  <variable name="x_14_5" index="215" value="1.00000"/>
  <variable name="x_15_0" index="225" value="1.00000"/>
  <variable name="u_1" index="240" value="36.00000"/>
  <variable name="u_2" index="241" value="36.00000"/>
  <variable name="u_3" index="242" value="25.00000"/>
  <variable name="u_4" index="243" value="37.00000"/>
  <variable name="u_5" index="244" value="23.00000"/>
  <variable name="u_6" index="245" value="27.00000"/>
  <variable name="u_7" index="246" value="23.00000"/>
  <variable name="u_8" index="247" value="32.00000"/>
  <variable name="u_9" index="248" value="34.00000"/>
  <variable name="u_10" index="249" value="38.00000"/>
  <variable name="u_11" index="250" value="6.00000"/>
  <variable name="u_12" index="251" value="34.00000"/>
  <variable name="u_13" index="252" value="38.00000"/>
  <variable name="u_14" index="253" value="3.00000"/>
  <variable name="u_15" index="254" value="31.00000"/>
 </variables>
</CPLEXSolution>
